# File generated with Atomsk by alvi on 2020-08-30 20:54:55
1.000000
      3.59000000        0.00000000        0.00000000
      0.00000000        2.91798693        0.00000000
      0.00000000        0.00000000        5.19000000
 Mo  S
     1       2
Direct
      0.00000000        0.00000000        0.00000000
      0.44289694        0.31459597        0.30732177
      0.44289694        0.31459597       -0.30732177
